decision_x1=[0,7];
decision_x2=[0,7];
decision_x3=[0,7];
decision_x4=[0,7];
decision_x5=[0,7];
decision_x6=[0,7];
decision_x7=[0,7];
decision_x8=[0,7];
decision_x9=[0,7];
decision_x10=[0,7];
decision_x11=[0,7];
decision_x12=[0,7];
decision_x13=[0,7];
decision_x14=[0,7];
decision_x15=[0,7];
decision_x16=[0,7];
random_y1=[0,7];
random_y2=[0,7];
random_y3=[0,7];
random_y4=[0,7];
random_y5=[0,7];
random_y6=[0,7];
random_y7=[0,7];
constraint_x2_x1=[
0,0,6.7|
0,1,6.2|
0,2,4.4|
0,3,2.9|
0,4,5.7|
0,5,7.6|
0,6,7.6|
0,7,3.5|
1,0,9.4|
1,1,5.8|
1,2,6.4|
1,3,5.1|
1,4,6.4|
1,5,9.1|
1,6,4.7|
1,7,7|
2,0,1.3|
2,1,8.8|
2,2,7.8|
2,3,3.4|
2,4,1.5|
2,5,7.2|
2,6,6.1|
2,7,1.4|
3,0,2|
3,1,4.5|
3,2,5.9|
3,3,6.9|
3,4,9.6|
3,5,3.6|
3,6,7.9|
3,7,8.8|
4,0,3.9|
4,1,4.6|
4,2,2.3|
4,3,8.2|
4,4,6.5|
4,5,8.2|
4,6,9.7|
4,7,8.1|
5,0,8.4|
5,1,9.6|
5,2,5.9|
5,3,0.5|
5,4,9.9|
5,5,9.9|
5,6,0.93|
5,7,3.1|
6,0,8.6|
6,1,1.9|
6,2,2.7|
6,3,5.2|
6,4,5|
6,5,6.1|
6,6,1.7|
6,7,6.8|
7,0,2.2|
7,1,4.6|
7,2,9.5|
7,3,8.8|
7,4,9.3|
7,5,0.8|
7,6,7.1|
7,7,5.6|
];
constraint_x3_x2=[
0,0,3.5|
0,1,1.8|
0,2,1.9|
0,3,5.7|
0,4,6.3|
0,5,3.1|
0,6,8.8|
0,7,8.9|
1,0,9|
1,1,6.7|
1,2,5|
1,3,3.5|
1,4,7.4|
1,5,6.1|
1,6,6.7|
1,7,4.2|
2,0,3.6|
2,1,1.8|
2,2,8.4|
2,3,9.3|
2,4,9.7|
2,5,1.4|
2,6,7.2|
2,7,3|
3,0,7.7|
3,1,4.7|
3,2,2.8|
3,3,5.5|
3,4,9.4|
3,5,7.5|
3,6,3.5|
3,7,6.9|
4,0,6.6|
4,1,9.7|
4,2,1.3|
4,3,8|
4,4,1.1|
4,5,0.93|
4,6,7.2|
4,7,6|
5,0,3.6|
5,1,7.8|
5,2,6.7|
5,3,7.4|
5,4,9.9|
5,5,1.9|
5,6,6.5|
5,7,3.1|
6,0,1.4|
6,1,4.4|
6,2,3.8|
6,3,6.1|
6,4,7.1|
6,5,9.4|
6,6,0.13|
6,7,8.2|
7,0,9.6|
7,1,8.1|
7,2,3.9|
7,3,4.4|
7,4,9|
7,5,5.3|
7,6,6.4|
7,7,10|
];
constraint_x4_x3=[
0,0,7.1|
0,1,5.8|
0,2,5.8|
0,3,6.5|
0,4,2|
0,5,4.3|
0,6,9|
0,7,9.2|
1,0,8.9|
1,1,2|
1,2,7.2|
1,3,4|
1,4,8|
1,5,7.9|
1,6,2.3|
1,7,4.9|
2,0,2.5|
2,1,4.3|
2,2,7.4|
2,3,4.1|
2,4,2.7|
2,5,4|
2,6,1.9|
2,7,6.9|
3,0,6.1|
3,1,1.7|
3,2,2.9|
3,3,0.79|
3,4,7.1|
3,5,0.3|
3,6,2.5|
3,7,4.5|
4,0,0.33|
4,1,9.4|
4,2,7.3|
4,3,3.1|
4,4,9.8|
4,5,8.9|
4,6,1.2|
4,7,4.3|
5,0,3.7|
5,1,5|
5,2,8|
5,3,1.8|
5,4,4.2|
5,5,6.8|
5,6,2.6|
5,7,4.1|
6,0,4.9|
6,1,3.6|
6,2,4.7|
6,3,1.7|
6,4,2.4|
6,5,0.37|
6,6,1.6|
6,7,6.5|
7,0,2.9|
7,1,2.8|
7,2,9.2|
7,3,3|
7,4,1.2|
7,5,3.8|
7,6,8.6|
7,7,6.2|
];
constraint_x5_x1=[
0,0,6.2|
0,1,1.9|
0,2,0.2|
0,3,1.8|
0,4,9.5|
0,5,5.4|
0,6,6.1|
0,7,4.7|
1,0,6.7|
1,1,2.1|
1,2,6.9|
1,3,5.7|
1,4,5.8|
1,5,2.8|
1,6,5.4|
1,7,7.4|
2,0,9|
2,1,4.7|
2,2,1.2|
2,3,4.8|
2,4,1.5|
2,5,8.8|
2,6,4.5|
2,7,8.6|
3,0,0.24|
3,1,7.5|
3,2,7.4|
3,3,3.6|
3,4,6.9|
3,5,1.6|
3,6,7|
3,7,2|
4,0,7.8|
4,1,0.54|
4,2,8.9|
4,3,8.7|
4,4,1.2|
4,5,2.2|
4,6,9.3|
4,7,8|
5,0,6|
5,1,1.8|
5,2,6.9|
5,3,6|
5,4,9.7|
5,5,6.3|
5,6,1.9|
5,7,10|
6,0,5.9|
6,1,2.1|
6,2,2|
6,3,6.3|
6,4,4.7|
6,5,3.8|
6,6,5.8|
6,7,4.8|
7,0,9.3|
7,1,9.3|
7,2,8.3|
7,3,5.2|
7,4,5.2|
7,5,9.8|
7,6,8.2|
7,7,9.6|
];
constraint_x6_x2=[
0,0,4.4|
0,1,5.5|
0,2,4.6|
0,3,6.8|
0,4,8.8|
0,5,2.3|
0,6,7.8|
0,7,5.9|
1,0,1.7|
1,1,6.1|
1,2,3.2|
1,3,3.1|
1,4,3.4|
1,5,10|
1,6,3.7|
1,7,4.1|
2,0,6.4|
2,1,9.9|
2,2,2.8|
2,3,4.8|
2,4,0.94|
2,5,2.4|
2,6,1.1|
2,7,7.1|
3,0,6.8|
3,1,2.6|
3,2,4.9|
3,3,9.8|
3,4,6.8|
3,5,7.6|
3,6,7|
3,7,1.2|
4,0,9.7|
4,1,9|
4,2,4.3|
4,3,1.1|
4,4,2.6|
4,5,4.3|
4,6,3.9|
4,7,7.2|
5,0,8|
5,1,3|
5,2,8.8|
5,3,6.7|
5,4,7.7|
5,5,3.5|
5,6,5.3|
5,7,2.9|
6,0,6.3|
6,1,5|
6,2,0.25|
6,3,9.8|
6,4,6.7|
6,5,9.6|
6,6,3.9|
6,7,3.8|
7,0,1.7|
7,1,7.8|
7,2,6.9|
7,3,9|
7,4,4.9|
7,5,0.062|
7,6,1.5|
7,7,1.9|
];
constraint_x6_x5=[
0,0,7.5|
0,1,7.8|
0,2,8|
0,3,4.5|
0,4,2.8|
0,5,2.3|
0,6,7.4|
0,7,3.8|
1,0,3.1|
1,1,2.5|
1,2,2.8|
1,3,4.2|
1,4,7.9|
1,5,4.3|
1,6,6.6|
1,7,8.9|
2,0,3.5|
2,1,5.6|
2,2,2.6|
2,3,7.3|
2,4,0.61|
2,5,4.9|
2,6,7.2|
2,7,5.3|
3,0,8.7|
3,1,5.4|
3,2,8|
3,3,0.65|
3,4,2.2|
3,5,4.9|
3,6,7.1|
3,7,8.3|
4,0,2.6|
4,1,4.5|
4,2,3.1|
4,3,1.6|
4,4,6.8|
4,5,3.1|
4,6,8|
4,7,9.6|
5,0,7|
5,1,1.1|
5,2,4.9|
5,3,5.1|
5,4,3.9|
5,5,8.2|
5,6,7.7|
5,7,1.5|
6,0,1.4|
6,1,5.8|
6,2,3|
6,3,1.7|
6,4,10|
6,5,5.6|
6,6,4.5|
6,7,6.3|
7,0,1.4|
7,1,7.4|
7,2,2.8|
7,3,8.1|
7,4,4.9|
7,5,3.8|
7,6,1.1|
7,7,6.8|
];
constraint_x7_x3=[
0,0,7.1|
0,1,4.5|
0,2,2.1|
0,3,0.33|
0,4,9.7|
0,5,7.9|
0,6,5.8|
0,7,5.8|
1,0,2.1|
1,1,7|
1,2,7.2|
1,3,7.6|
1,4,2.8|
1,5,2.9|
1,6,6.1|
1,7,7.7|
2,0,2.1|
2,1,7.8|
2,2,3.5|
2,3,1|
2,4,5.5|
2,5,2.1|
2,6,2.6|
2,7,3.2|
3,0,3.2|
3,1,4.1|
3,2,4.4|
3,3,7.9|
3,4,3.2|
3,5,4.4|
3,6,8.1|
3,7,4.8|
4,0,1.2|
4,1,2.8|
4,2,3.5|
4,3,6.8|
4,4,7.7|
4,5,4.8|
4,6,3.2|
4,7,5|
5,0,3.9|
5,1,9.5|
5,2,9.7|
5,3,2.9|
5,4,8.3|
5,5,6.8|
5,6,0.21|
5,7,6.4|
6,0,0.97|
6,1,5.7|
6,2,8.8|
6,3,1|
6,4,2.2|
6,5,7.5|
6,6,2.8|
6,7,7|
7,0,9|
7,1,4.4|
7,2,1.8|
7,3,4.3|
7,4,2|
7,5,3.5|
7,6,2.7|
7,7,7.2|
];
constraint_x7_x6=[
0,0,0.81|
0,1,3.7|
0,2,8.9|
0,3,8|
0,4,7.5|
0,5,8.5|
0,6,1.4|
0,7,9.3|
1,0,5.8|
1,1,8.2|
1,2,8.7|
1,3,0.75|
1,4,7.8|
1,5,8.8|
1,6,5|
1,7,8.6|
2,0,0.17|
2,1,5.4|
2,2,2.3|
2,3,5.5|
2,4,2.2|
2,5,1.3|
2,6,9.7|
2,7,2.6|
3,0,5.6|
3,1,2.3|
3,2,2.3|
3,3,3.2|
3,4,9.9|
3,5,6.6|
3,6,4.8|
3,7,1.9|
4,0,3.3|
4,1,7.6|
4,2,4.8|
4,3,1.4|
4,4,2.3|
4,5,5.4|
4,6,2.9|
4,7,4.3|
5,0,8.1|
5,1,8|
5,2,8.2|
5,3,0.54|
5,4,8.7|
5,5,3.1|
5,6,5.3|
5,7,5.7|
6,0,5.1|
6,1,2.5|
6,2,9.4|
6,3,7.6|
6,4,3.3|
6,5,9.2|
6,6,4.9|
6,7,9.9|
7,0,6.3|
7,1,7.5|
7,2,7|
7,3,6.2|
7,4,1.5|
7,5,5.9|
7,6,6.6|
7,7,3.2|
];
constraint_x8_x4=[
0,0,4.8|
0,1,0.37|
0,2,0.82|
0,3,5|
0,4,8.4|
0,5,9.9|
0,6,7.1|
0,7,0.41|
1,0,8.6|
1,1,0.85|
1,2,9.3|
1,3,9.2|
1,4,0.36|
1,5,4.6|
1,6,8.3|
1,7,4.9|
2,0,2|
2,1,2.7|
2,2,9.4|
2,3,6.1|
2,4,6.4|
2,5,9.1|
2,6,4.4|
2,7,2.3|
3,0,5.4|
3,1,2.4|
3,2,7.2|
3,3,0.15|
3,4,3.7|
3,5,6.2|
3,6,3.2|
3,7,3.3|
4,0,2|
4,1,8.9|
4,2,5.3|
4,3,6.3|
4,4,4.1|
4,5,7.9|
4,6,9.3|
4,7,0.97|
5,0,7.1|
5,1,8.6|
5,2,2.7|
5,3,8.9|
5,4,4.6|
5,5,2.3|
5,6,8|
5,7,2.6|
6,0,3.8|
6,1,8.6|
6,2,6.7|
6,3,1.8|
6,4,2.9|
6,5,7.3|
6,6,0.9|
6,7,0.24|
7,0,3|
7,1,2.5|
7,2,6.2|
7,3,1.1|
7,4,5.6|
7,5,0.0073|
7,6,0.58|
7,7,4.6|
];
constraint_x8_x7=[
0,0,1.3|
0,1,1.4|
0,2,9.9|
0,3,10|
0,4,7.7|
0,5,6.5|
0,6,0.32|
0,7,8.7|
1,0,3.6|
1,1,0.2|
1,2,8.7|
1,3,3.2|
1,4,4|
1,5,8.9|
1,6,7.6|
1,7,7.4|
2,0,7.1|
2,1,8.5|
2,2,1.2|
2,3,9.1|
2,4,0.78|
2,5,4.6|
2,6,3.6|
2,7,3.5|
3,0,7.7|
3,1,5.7|
3,2,8|
3,3,9.5|
3,4,9.4|
3,5,3.4|
3,6,2.7|
3,7,1.6|
4,0,2.7|
4,1,2.7|
4,2,3.8|
4,3,4.3|
4,4,9.8|
4,5,1.8|
4,6,0.25|
4,7,5.8|
5,0,9.6|
5,1,8.1|
5,2,7.1|
5,3,8.7|
5,4,3|
5,5,0.16|
5,6,2.7|
5,7,6.9|
6,0,8.3|
6,1,9.7|
6,2,8.5|
6,3,6.4|
6,4,1.1|
6,5,3.6|
6,6,3.5|
6,7,5.8|
7,0,0.64|
7,1,1.2|
7,2,3.6|
7,3,6.5|
7,4,1.8|
7,5,8.3|
7,6,3.3|
7,7,1.9|
];
constraint_x9_x5=[
0,0,8.9|
0,1,0.16|
0,2,3.3|
0,3,4.3|
0,4,5.2|
0,5,2.6|
0,6,7.8|
0,7,0.79|
1,0,5.7|
1,1,0.072|
1,2,1.9|
1,3,0.1|
1,4,4.2|
1,5,3.5|
1,6,9|
1,7,6.1|
2,0,8.4|
2,1,1.7|
2,2,10|
2,3,0.088|
2,4,0.82|
2,5,9.8|
2,6,6.9|
2,7,4.5|
3,0,9.8|
3,1,8.5|
3,2,5.5|
3,3,2.2|
3,4,6.2|
3,5,2.5|
3,6,10|
3,7,8.8|
4,0,7.1|
4,1,6.6|
4,2,9.1|
4,3,9|
4,4,8.2|
4,5,6.9|
4,6,5.8|
4,7,6|
5,0,5.9|
5,1,2.5|
5,2,9.1|
5,3,3.8|
5,4,3.9|
5,5,9.1|
5,6,8.1|
5,7,7.5|
6,0,6.3|
6,1,2.9|
6,2,0.058|
6,3,8.2|
6,4,0.64|
6,5,1.2|
6,6,5.7|
6,7,7.7|
7,0,1.7|
7,1,8.4|
7,2,5.4|
7,3,4|
7,4,5.8|
7,5,0.7|
7,6,2.4|
7,7,7.5|
];
constraint_x10_x6=[
0,0,4|
0,1,6.9|
0,2,7.7|
0,3,7.8|
0,4,6.5|
0,5,4.3|
0,6,7.3|
0,7,1|
1,0,0.38|
1,1,0.34|
1,2,9.7|
1,3,2|
1,4,9.1|
1,5,3.1|
1,6,4.7|
1,7,2.7|
2,0,2.2|
2,1,8.2|
2,2,3.1|
2,3,7.5|
2,4,8.1|
2,5,0.035|
2,6,8.5|
2,7,7.1|
3,0,1.9|
3,1,4.9|
3,2,6.2|
3,3,4.6|
3,4,1.3|
3,5,0.7|
3,6,1.5|
3,7,6|
4,0,4.2|
4,1,4.3|
4,2,7.9|
4,3,5.9|
4,4,4.9|
4,5,8.1|
4,6,6.3|
4,7,1.3|
5,0,3.5|
5,1,7|
5,2,9|
5,3,8.5|
5,4,7.3|
5,5,5.5|
5,6,9|
5,7,2.7|
6,0,0.56|
6,1,6.8|
6,2,0.53|
6,3,8|
6,4,6.5|
6,5,3.4|
6,6,8|
6,7,7.5|
7,0,8.9|
7,1,5.2|
7,2,4|
7,3,2.9|
7,4,9.1|
7,5,5.2|
7,6,8.4|
7,7,5.7|
];
constraint_x11_x7=[
0,0,8.6|
0,1,5.5|
0,2,1.5|
0,3,9.9|
0,4,0.46|
0,5,9.6|
0,6,8.6|
0,7,1.2|
1,0,2.9|
1,1,7.3|
1,2,1.8|
1,3,3.2|
1,4,4.8|
1,5,1.7|
1,6,9.2|
1,7,3.6|
2,0,5.9|
2,1,4.9|
2,2,3.7|
2,3,1.4|
2,4,3.4|
2,5,7.5|
2,6,8.6|
2,7,6.6|
3,0,2.2|
3,1,2.9|
3,2,0.83|
3,3,0.99|
3,4,6.3|
3,5,1.9|
3,6,7.6|
3,7,6.1|
4,0,0.16|
4,1,0.41|
4,2,3.2|
4,3,2.1|
4,4,1.3|
4,5,6.5|
4,6,6.9|
4,7,8.6|
5,0,6.4|
5,1,7.4|
5,2,8.6|
5,3,6.8|
5,4,6.4|
5,5,3.2|
5,6,3|
5,7,0.76|
6,0,1.9|
6,1,8.1|
6,2,4|
6,3,7.4|
6,4,9.1|
6,5,9.6|
6,6,8.7|
6,7,4.8|
7,0,2.5|
7,1,6.6|
7,2,7.2|
7,3,4.8|
7,4,0.31|
7,5,4.8|
7,6,6.4|
7,7,8.2|
];
constraint_x12_x8=[
0,0,3.4|
0,1,7.5|
0,2,2|
0,3,6.1|
0,4,4.9|
0,5,6.4|
0,6,7.2|
0,7,0.84|
1,0,9.6|
1,1,2.5|
1,2,2|
1,3,9.1|
1,4,7.5|
1,5,1.6|
1,6,8.3|
1,7,5.4|
2,0,5.1|
2,1,9.2|
2,2,3.3|
2,3,8|
2,4,4.9|
2,5,5.9|
2,6,0.59|
2,7,4.3|
3,0,8.7|
3,1,7.1|
3,2,6.1|
3,3,1|
3,4,1.7|
3,5,5.4|
3,6,9.8|
3,7,4.8|
4,0,4.9|
4,1,7.5|
4,2,9|
4,3,0.69|
4,4,2.9|
4,5,0.95|
4,6,2.1|
4,7,1.3|
5,0,3.5|
5,1,2.7|
5,2,4.9|
5,3,6|
5,4,1.3|
5,5,4.5|
5,6,6.9|
5,7,8.6|
6,0,4.2|
6,1,3.1|
6,2,6.9|
6,3,9.1|
6,4,9.9|
6,5,2.4|
6,6,8.5|
6,7,2.3|
7,0,4.6|
7,1,1.1|
7,2,8.1|
7,3,4.7|
7,4,9.7|
7,5,6.8|
7,6,2.7|
7,7,4.4|
];
constraint_x13_x9=[
0,0,1.4|
0,1,2.1|
0,2,4.7|
0,3,4|
0,4,6.4|
0,5,4.5|
0,6,5.3|
0,7,0.18|
1,0,3.5|
1,1,5.8|
1,2,7.8|
1,3,4.6|
1,4,4.4|
1,5,7.3|
1,6,0.35|
1,7,7.2|
2,0,8.3|
2,1,2.8|
2,2,1.7|
2,3,7.7|
2,4,1.8|
2,5,4.3|
2,6,4.6|
2,7,9.5|
3,0,1.5|
3,1,5.5|
3,2,9.9|
3,3,3.3|
3,4,7.8|
3,5,5.8|
3,6,4.4|
3,7,5.2|
4,0,8|
4,1,1.1|
4,2,2|
4,3,4.5|
4,4,9.4|
4,5,10|
4,6,7|
4,7,1.8|
5,0,5.6|
5,1,9.1|
5,2,0.79|
5,3,0.89|
5,4,4.7|
5,5,2.7|
5,6,9.7|
5,7,7.6|
6,0,9.5|
6,1,2.1|
6,2,8.9|
6,3,1.9|
6,4,9.3|
6,5,1.2|
6,6,0.33|
6,7,0.35|
7,0,4.4|
7,1,9.4|
7,2,9.6|
7,3,8.3|
7,4,2.6|
7,5,9.1|
7,6,6.9|
7,7,5.1|
];
constraint_x14_x10=[
0,0,1.2|
0,1,1.1|
0,2,0.71|
0,3,9.8|
0,4,2.3|
0,5,2|
0,6,7.9|
0,7,4.9|
1,0,7.8|
1,1,3.8|
1,2,5.3|
1,3,1.8|
1,4,7.7|
1,5,9.2|
1,6,1.6|
1,7,8.1|
2,0,5.6|
2,1,9.7|
2,2,4.5|
2,3,4.7|
2,4,8.7|
2,5,5.5|
2,6,5|
2,7,8.3|
3,0,7.5|
3,1,3.7|
3,2,3|
3,3,9.1|
3,4,1.2|
3,5,8.9|
3,6,9.7|
3,7,0.19|
4,0,9.7|
4,1,1.4|
4,2,0.19|
4,3,5.1|
4,4,3.5|
4,5,4.3|
4,6,4.1|
4,7,5.1|
5,0,1.5|
5,1,1.8|
5,2,6.2|
5,3,1.6|
5,4,1.4|
5,5,5.4|
5,6,7.6|
5,7,6.4|
6,0,6.5|
6,1,7.8|
6,2,4.4|
6,3,7.1|
6,4,9.5|
6,5,6.8|
6,6,6.3|
6,7,1.7|
7,0,6.7|
7,1,1.8|
7,2,9.4|
7,3,7.3|
7,4,0.015|
7,5,8.2|
7,6,6.7|
7,7,1.5|
];
constraint_x15_x11=[
0,0,7.1|
0,1,2|
0,2,5.3|
0,3,5.9|
0,4,4.7|
0,5,4.1|
0,6,9.5|
0,7,0.6|
1,0,6.2|
1,1,5.5|
1,2,9.7|
1,3,2.3|
1,4,1.4|
1,5,7.6|
1,6,2.3|
1,7,8.9|
2,0,1.6|
2,1,7.7|
2,2,9|
2,3,0.11|
2,4,6.8|
2,5,7.7|
2,6,1|
2,7,2.6|
3,0,8.2|
3,1,5.2|
3,2,7.2|
3,3,1.4|
3,4,1.2|
3,5,4.9|
3,6,10|
3,7,0.097|
4,0,7.5|
4,1,8.9|
4,2,2.6|
4,3,9.1|
4,4,5.4|
4,5,0.3|
4,6,2.1|
4,7,8.7|
5,0,1.7|
5,1,5.3|
5,2,1.4|
5,3,4.1|
5,4,8.1|
5,5,8.2|
5,6,9.6|
5,7,7.8|
6,0,1.3|
6,1,7.9|
6,2,9.5|
6,3,7.5|
6,4,1.9|
6,5,9.2|
6,6,3.3|
6,7,7.4|
7,0,7.6|
7,1,6.3|
7,2,2.9|
7,3,1.7|
7,4,9.6|
7,5,9.1|
7,6,0.73|
7,7,4.7|
];
constraint_x16_x12=[
0,0,0.36|
0,1,6.2|
0,2,8.2|
0,3,0.35|
0,4,7|
0,5,9.8|
0,6,4.7|
0,7,3.3|
1,0,1.3|
1,1,2.6|
1,2,3.3|
1,3,4.8|
1,4,7.1|
1,5,5.9|
1,6,6.1|
1,7,5.9|
2,0,2.2|
2,1,1.6|
2,2,9.8|
2,3,2.7|
2,4,4.1|
2,5,2.5|
2,6,1.5|
2,7,1.9|
3,0,1.4|
3,1,5|
3,2,3|
3,3,5.6|
3,4,2.9|
3,5,3.1|
3,6,3|
3,7,1.9|
4,0,3.6|
4,1,7.2|
4,2,3.3|
4,3,3.2|
4,4,4.2|
4,5,2.1|
4,6,8.7|
4,7,0.5|
5,0,9.3|
5,1,0.39|
5,2,3.7|
5,3,4.7|
5,4,7.4|
5,5,5|
5,6,6.5|
5,7,1|
6,0,0.39|
6,1,2.9|
6,2,3.2|
6,3,3.8|
6,4,7.6|
6,5,0.89|
6,6,3.7|
6,7,2.1|
7,0,8.3|
7,1,9|
7,2,9.8|
7,3,9.5|
7,4,2.9|
7,5,2.1|
7,6,7|
7,7,6.2|
];
constraint_x1_y1=[
0,0,4.3|
0,1,5.8|
0,2,9.1|
0,3,7.7|
0,4,3.2|
0,5,8.5|
0,6,2.8|
0,7,8.2|
1,0,3.4|
1,1,4.2|
1,2,1.9|
1,3,0.52|
1,4,1.1|
1,5,1.6|
1,6,7.1|
1,7,6.7|
2,0,2.2|
2,1,7.9|
2,2,7.1|
2,3,3.4|
2,4,9.2|
2,5,1.6|
2,6,6.4|
2,7,7.5|
3,0,7.4|
3,1,3.2|
3,2,2.4|
3,3,2.6|
3,4,8.2|
3,5,9.3|
3,6,3|
3,7,8.8|
4,0,2.5|
4,1,10|
4,2,9.6|
4,3,9.7|
4,4,5.1|
4,5,5.1|
4,6,4.5|
4,7,1.8|
5,0,1.5|
5,1,7.1|
5,2,8.3|
5,3,3.7|
5,4,8.7|
5,5,1.9|
5,6,3|
5,7,6.4|
6,0,8.1|
6,1,0.39|
6,2,3|
6,3,3.9|
6,4,7.7|
6,5,7.3|
6,6,1.5|
6,7,9.4|
7,0,4.2|
7,1,7.8|
7,2,1.6|
7,3,4.6|
7,4,9.1|
7,5,2|
7,6,9.4|
7,7,5.5|
];
constraint_x2_y2=[
0,0,3.3|
0,1,0.16|
0,2,1.8|
0,3,6.2|
0,4,7.2|
0,5,1.6|
0,6,0.19|
0,7,8.2|
1,0,7.6|
1,1,7.2|
1,2,1.5|
1,3,4.1|
1,4,4|
1,5,7.3|
1,6,9.2|
1,7,3.5|
2,0,7.1|
2,1,4.4|
2,2,6.2|
2,3,1.2|
2,4,0.9|
2,5,5.5|
2,6,7.6|
2,7,3.3|
3,0,2|
3,1,0.82|
3,2,4.6|
3,3,9.8|
3,4,4.4|
3,5,5.6|
3,6,7.7|
3,7,3.8|
4,0,4.7|
4,1,7.4|
4,2,4.2|
4,3,9.1|
4,4,0.1|
4,5,9.2|
4,6,8.6|
4,7,6.6|
5,0,6.9|
5,1,5.7|
5,2,6.9|
5,3,3.5|
5,4,9.9|
5,5,1.8|
5,6,7.1|
5,7,3.4|
6,0,9.9|
6,1,5.6|
6,2,4.4|
6,3,8.2|
6,4,9.8|
6,5,4.2|
6,6,0.75|
6,7,0.19|
7,0,3.5|
7,1,6|
7,2,7|
7,3,9.1|
7,4,0.087|
7,5,7.6|
7,6,8.8|
7,7,6.4|
];
constraint_x3_y3=[
0,0,2.6|
0,1,8|
0,2,4.5|
0,3,8.7|
0,4,7|
0,5,3.5|
0,6,7.7|
0,7,0.024|
1,0,5.8|
1,1,8.5|
1,2,0.19|
1,3,2.6|
1,4,7.5|
1,5,4.4|
1,6,9.1|
1,7,2.7|
2,0,5.6|
2,1,6|
2,2,2.6|
2,3,5.1|
2,4,8|
2,5,2.8|
2,6,8.4|
2,7,3.7|
3,0,5.3|
3,1,0.74|
3,2,4.8|
3,3,2.1|
3,4,2.5|
3,5,8.5|
3,6,8.2|
3,7,1.7|
4,0,8|
4,1,1.7|
4,2,0.65|
4,3,1.7|
4,4,5.3|
4,5,8.5|
4,6,2.2|
4,7,6.8|
5,0,7.7|
5,1,5.4|
5,2,6.3|
5,3,6.3|
5,4,7.6|
5,5,4.7|
5,6,7.7|
5,7,2.4|
6,0,4.5|
6,1,7.6|
6,2,8.5|
6,3,3.2|
6,4,8.4|
6,5,9.2|
6,6,5.8|
6,7,6.7|
7,0,3|
7,1,8.5|
7,2,1.3|
7,3,7.7|
7,4,3|
7,5,7.7|
7,6,0.12|
7,7,9.7|
];
constraint_x4_y4=[
0,0,6.3|
0,1,4.6|
0,2,7.7|
0,3,7.4|
0,4,6.5|
0,5,4.2|
0,6,8.8|
0,7,0.82|
1,0,5.8|
1,1,4.1|
1,2,3.1|
1,3,8|
1,4,0.35|
1,5,9.4|
1,6,4.3|
1,7,0.5|
2,0,7.7|
2,1,8|
2,2,3.7|
2,3,0.12|
2,4,3.8|
2,5,5.9|
2,6,6.7|
2,7,1.4|
3,0,3.3|
3,1,0.79|
3,2,8.1|
3,3,6.7|
3,4,0.69|
3,5,8.7|
3,6,4.3|
3,7,9.9|
4,0,8.1|
4,1,2.3|
4,2,1.5|
4,3,7.7|
4,4,6.2|
4,5,5.8|
4,6,2.9|
4,7,1.7|
5,0,7.8|
5,1,8.6|
5,2,2.6|
5,3,9.4|
5,4,0.32|
5,5,1.8|
5,6,6.3|
5,7,6.4|
6,0,4.8|
6,1,7|
6,2,5.9|
6,3,9.6|
6,4,4.3|
6,5,4.3|
6,6,9.7|
6,7,4.9|
7,0,3.2|
7,1,1.1|
7,2,8.8|
7,3,3|
7,4,2.4|
7,5,1.3|
7,6,4.8|
7,7,3.6|
];
constraint_x5_y5=[
0,0,4|
0,1,5.6|
0,2,7.9|
0,3,8|
0,4,3.7|
0,5,9.7|
0,6,2|
0,7,3.1|
1,0,9.9|
1,1,7.9|
1,2,5.6|
1,3,6.5|
1,4,3.8|
1,5,3|
1,6,1.8|
1,7,1.7|
2,0,1.2|
2,1,9.9|
2,2,0.99|
2,3,3|
2,4,4.8|
2,5,2.6|
2,6,9.7|
2,7,2.5|
3,0,2.7|
3,1,4.7|
3,2,2.2|
3,3,9.9|
3,4,8.5|
3,5,0.17|
3,6,1.8|
3,7,0.065|
4,0,4.5|
4,1,10|
4,2,10|
4,3,8.9|
4,4,7.2|
4,5,5.4|
4,6,3.1|
4,7,8.7|
5,0,7.5|
5,1,5.2|
5,2,1.8|
5,3,7.9|
5,4,0.23|
5,5,3.4|
5,6,5.9|
5,7,2.1|
6,0,1.9|
6,1,8.4|
6,2,5.9|
6,3,5.7|
6,4,8.6|
6,5,7.8|
6,6,9.3|
6,7,2.1|
7,0,5|
7,1,2.2|
7,2,2|
7,3,2.7|
7,4,7|
7,5,5.2|
7,6,5.3|
7,7,8.3|
];
constraint_x6_y6=[
0,0,3.1|
0,1,7.5|
0,2,9.2|
0,3,5.4|
0,4,3.1|
0,5,0.93|
0,6,1.7|
0,7,6.9|
1,0,8.6|
1,1,4|
1,2,2.9|
1,3,8|
1,4,2.4|
1,5,6.5|
1,6,0.053|
1,7,5.2|
2,0,2.2|
2,1,3|
2,2,0.19|
2,3,4.5|
2,4,2.1|
2,5,0.89|
2,6,6.2|
2,7,1.4|
3,0,8.3|
3,1,8.7|
3,2,5|
3,3,0.29|
3,4,5|
3,5,0.16|
3,6,6|
3,7,0.66|
4,0,6.7|
4,1,8.7|
4,2,4.1|
4,3,3|
4,4,5.2|
4,5,3.2|
4,6,7.7|
4,7,8|
5,0,5.1|
5,1,1.1|
5,2,1.3|
5,3,0.8|
5,4,0.72|
5,5,5.3|
5,6,8.3|
5,7,3.4|
6,0,3.4|
6,1,9.7|
6,2,8|
6,3,7.5|
6,4,7.1|
6,5,6.2|
6,6,9.3|
6,7,7.8|
7,0,3.2|
7,1,1.8|
7,2,4.1|
7,3,8.7|
7,4,5.1|
7,5,8.3|
7,6,7.3|
7,7,5.6|
];
constraint_x7_y7=[
0,0,2.4|
0,1,9.1|
0,2,7.4|
0,3,3.8|
0,4,9.5|
0,5,6.7|
0,6,5.7|
0,7,6.1|
1,0,3.4|
1,1,0.93|
1,2,7.2|
1,3,6.4|
1,4,8.9|
1,5,5.5|
1,6,3.4|
1,7,4.5|
2,0,2|
2,1,4.8|
2,2,9.1|
2,3,7.4|
2,4,9.2|
2,5,7.7|
2,6,4.1|
2,7,1.8|
3,0,9.7|
3,1,0.41|
3,2,5.3|
3,3,9.1|
3,4,1.4|
3,5,4.3|
3,6,4.5|
3,7,4.8|
4,0,6.8|
4,1,2.3|
4,2,7.4|
4,3,9.2|
4,4,9.9|
4,5,2.7|
4,6,0.62|
4,7,9|
5,0,7.3|
5,1,9.4|
5,2,9.5|
5,3,7.9|
5,4,0.76|
5,5,6.9|
5,6,7.3|
5,7,0.72|
6,0,9.3|
6,1,7.2|
6,2,0.91|
6,3,4.4|
6,4,0.94|
6,5,5.5|
6,6,7.1|
6,7,6.5|
7,0,0.85|
7,1,2.7|
7,2,1.6|
7,3,5.7|
7,4,3.4|
7,5,2.5|
7,6,2.8|
7,7,2.1|
];
initial_distribution_y1=[0.11,0.043,0.19,0.19,0.14,0.15,0.14,0.033];
initial_distribution_y2=[0.075,0.16,0.22,0.13,0.022,0.18,0.081,0.13];
initial_distribution_y3=[0.11,0.16,0.007,0.17,0.087,0.21,0.054,0.2];
initial_distribution_y4=[0.29,0.23,0.011,0.22,0.17,0.043,0.022,0.0082];
initial_distribution_y5=[0.0089,0.2,0.19,0.053,0.058,0.21,0.19,0.084];
initial_distribution_y6=[0.21,0.19,0.16,0.054,0.13,0.087,0.035,0.12];
initial_distribution_y7=[0.16,0.11,0.097,0.18,0.08,0.14,0.039,0.19];
transition_y1=[
0.28,0.019,0.22,0.077,0.086,0.047,0.09,0.18|
0.096,0.061,0.12,0.13,0.13,0.19,0.14,0.13|
0.13,0.13,0.069,0.1,0.18,0.15,0.027,0.21|
0.15,0.17,0.11,0.16,0.11,0.023,0.088,0.19|
0.12,0.017,0.12,0.24,0.068,0.15,0.18,0.12|
0.075,0.0097,0.2,0.2,0.11,0.036,0.11,0.25|
0.094,0.15,0.19,0.18,0.1,0.11,0.011,0.17|
0.11,0.24,0.11,0.092,0.064,0.15,0.098,0.14|
];
transition_y2=[
0.23,0.063,0.21,0.16,0.023,0.081,0.093,0.15|
0.086,0.2,0.033,0.12,0.21,0.21,0.086,0.057|
0.12,0.19,0.17,0.14,0.025,0.12,0.066,0.17|
0.017,0.15,0.11,0.033,0.021,0.34,0.009,0.32|
0.12,0.11,0.0079,0.25,0.13,0.1,0.047,0.23|
0.11,0.1,0.088,0.2,0.19,0.19,0.1,0.013|
0.062,0.19,0.088,0.083,0.074,0.042,0.22,0.25|
0.22,0.14,0.11,0.17,0.13,0.061,0.065,0.1|
];
transition_y3=[
0.17,0.22,0.18,0.071,0.11,0.033,0.19,0.021|
0.12,0.17,0.057,0.16,0.085,0.12,0.13,0.16|
0.18,0.0061,0.051,0.27,0.07,0.19,0.19,0.033|
0.21,0.044,0.084,0.083,0.037,0.21,0.13,0.2|
0.17,0.13,0.2,0.075,0.13,0.15,0.021,0.11|
0.054,0.28,0.0049,0.016,0.22,0.1,0.19,0.13|
0.095,0.075,0.09,0.19,0.067,0.16,0.13,0.19|
0.11,0.19,0.039,0.2,0.016,0.17,0.12,0.16|
];
transition_y4=[
0.03,0.23,0.27,0.065,0.17,0.018,0.18,0.034|
0.095,0.17,0.063,0.2,0.23,0.22,0.0073,0.0094|
0.096,0.2,0.095,0.14,0.14,0.098,0.13,0.1|
0.077,0.19,0.021,0.13,0.1,0.18,0.22,0.081|
0.18,0.11,0.015,0.13,0.21,0.097,0.2,0.045|
0.12,0.16,0.12,0.33,0.17,0.0058,0.058,0.041|
0.13,0.067,0.22,0.047,0.23,0.061,0.14,0.11|
0.068,0.093,0.16,0.12,0.18,0.07,0.13,0.18|
];
transition_y5=[
0.067,0.17,0.16,0.15,0.089,0.02,0.12,0.21|
0.092,0.14,0.17,0.16,0.078,0.15,0.093,0.11|
0.17,0.2,0.14,0.13,0.036,0.022,0.1,0.19|
0.079,0.27,0.31,0.15,0.11,0.032,0.012,0.035|
0.088,0.012,0.25,0.11,0.12,0.18,0.11,0.14|
0.12,0.098,0.18,0.16,0.14,0.2,0.024,0.078|
0.0027,0.17,0.23,0.18,0.094,0.015,0.25,0.051|
0.14,0.21,0.19,0.038,0.11,0.022,0.088,0.19|
];
transition_y6=[
0.12,0.15,0.11,0.19,0.031,0.13,0.073,0.2|
0.17,0.0083,0.18,0.15,0.18,0.13,0.031,0.15|
0.12,0.061,0.031,0.14,0.17,0.17,0.14,0.17|
0.13,0.011,0.16,0.2,0.16,0.19,0.07,0.063|
0.012,0.071,0.15,0.27,0.16,0.26,0.057,0.015|
0.093,0.099,0.046,0.24,0.15,0.16,0.15,0.068|
0.087,0.22,0.17,0.084,0.18,0.084,0.12,0.05|
0.032,0.25,0.19,0.13,0.0081,0.22,0.046,0.12|
];
transition_y7=[
0.12,0.23,0.18,0.13,0.18,0.026,0.13,0.014|
0.17,0.04,0.16,0.03,0.14,0.039,0.092,0.34|
0.17,0.18,0.058,0.017,0.17,0.16,0.17,0.072|
0.18,0.058,0.017,0.15,0.12,0.17,0.021,0.28|
0.13,0.022,0.17,0.16,0.17,0.1,0.16,0.087|
0.15,0.13,0.11,0.15,0.072,0.022,0.2,0.17|
0.13,0.1,0.095,0.18,0.13,0.12,0.051,0.19|
0.15,0.19,0.097,0.15,0.14,0.025,0.019,0.23|
];
